sat
(:arith-branch          3
 :arith-dio-calls       3
 :arith-gcd-calls       4
 :arith-lower           12
 :arith-make-feasible   5
 :arith-max-columns     45
 :arith-max-rows        26
 :arith-patches         4
 :arith-patches-success 1
 :arith-upper           16
 :decisions             3
 :final-checks          4
 :max-memory            19.17
 :memory                18.63
 :mk-bool-var           28
 :num-allocs            143144
 :num-checks            1
 :rlimit-count          4140
 :time                  0.02
 :total-time            0.10)
